%%%%%%%%%%%%%%%%%%%%%%%%%%%%%%%%%%%%%%%%%%%%%%%%%%%%%%%%%%%%%%%%%%%%%%%%%
%FILE DATA:	Soccer Computational Problem for MiniZinc Models
%AUTHORS:	Robinson Duque, Alejandro Arbelaez, Juan Francisco Díaz
%CONTACT:  	robinson.duque@correounivalle.edu.co 
%LAST UPDATE:	May, 2018 
%ROUND ROBIN:2
%TEAMS:20
%PRESENT FIXTURE:23
%FIXTURES TO PLAY:15
%GAMES TO PLAY:150
%%%%%%%%%%%%%%%%%%%%%%%%%%%%%%%%%%%%%%%%%%%%%%%%%%%%%%%%%%%%%%%%%%%%%%%%%
%Number of teams:
n=20;

%For the purpose of our models, we offer two representations of the games to play, namely fixtures and games to play:

%Fixtures to play:
%fixtures=[|0,1,0,1,1,0,1,1,0,1,1,1,1,1,1,0,1,1,1,1
%|1,0,1,1,1,1,1,1,1,0,0,1,0,1,1,1,1,1,0,1
%|0,1,0,0,1,0,1,0,1,1,1,1,1,1,1,1,1,1,1,1
%|1,1,0,0,0,1,1,1,0,1,0,1,1,1,1,1,1,1,1,1
%|1,1,1,0,0,1,0,1,0,0,1,1,1,1,1,1,1,1,1,1
%|0,1,0,1,1,0,1,0,1,0,1,1,1,1,1,1,1,1,1,1
%|1,1,1,1,0,1,0,1,1,1,1,1,0,1,1,0,0,1,1,1
%|1,1,0,1,1,0,1,0,0,1,1,1,1,1,1,1,1,1,0,1
%|0,1,1,0,0,1,1,0,0,1,1,1,1,1,1,1,1,1,1,1
%|1,0,1,1,0,0,1,1,1,0,0,1,1,1,1,1,1,1,1,1
%|1,0,1,0,1,1,1,1,1,0,0,1,1,1,0,1,1,1,1,1
%|1,1,1,1,1,1,1,1,1,1,1,0,0,1,1,1,1,0,0,0
%|1,0,1,1,1,1,0,1,1,1,1,0,0,0,1,1,1,1,1,1
%|1,1,1,1,1,1,1,1,1,1,1,1,0,0,1,1,0,0,1,0
%|1,1,1,1,1,1,1,1,1,1,0,1,1,1,0,1,0,0,1,0
%|0,1,1,1,1,1,0,1,1,1,1,1,1,1,1,0,1,1,0,0
%|1,1,1,1,1,1,0,1,1,1,1,1,1,0,0,1,0,0,1,1
%|1,1,1,1,1,1,1,1,1,1,1,0,1,0,0,1,0,0,1,1
%|1,0,1,1,1,1,1,0,1,1,1,0,1,1,1,0,1,1,0,1
%|1,1,1,1,1,1,1,1,1,1,1,0,1,0,0,0,1,1,1,0|];

%Played Fixtures:
%PlayedFixtures=[|0,1,2,1,1,2,1,1,2,1,1,1,1,1,1,2,1,1,1,1
%|1,0,1,1,1,1,1,1,1,2,2,1,2,1,1,1,1,1,2,1
%|2,1,0,2,1,2,1,2,1,1,1,1,1,1,1,1,1,1,1,1
%|1,1,2,0,2,1,1,1,2,1,2,1,1,1,1,1,1,1,1,1
%|1,1,1,2,0,1,2,1,2,2,1,1,1,1,1,1,1,1,1,1
%|2,1,2,1,1,0,1,2,1,2,1,1,1,1,1,1,1,1,1,1
%|1,1,1,1,2,1,0,1,1,1,1,1,2,1,1,2,2,1,1,1
%|1,1,2,1,1,2,1,0,2,1,1,1,1,1,1,1,1,1,2,1
%|2,1,1,2,2,1,1,2,0,1,1,1,1,1,1,1,1,1,1,1
%|1,2,1,1,2,2,1,1,1,0,2,1,1,1,1,1,1,1,1,1
%|1,2,1,2,1,1,1,1,1,2,0,1,1,1,2,1,1,1,1,1
%|1,1,1,1,1,1,1,1,1,1,1,0,2,1,1,1,1,2,2,2
%|1,2,1,1,1,1,2,1,1,1,1,2,0,2,1,1,1,1,1,1
%|1,1,1,1,1,1,1,1,1,1,1,1,2,0,1,1,2,2,1,2
%|1,1,1,1,1,1,1,1,1,1,2,1,1,1,0,1,2,2,1,2
%|2,1,1,1,1,1,2,1,1,1,1,1,1,1,1,0,1,1,2,2
%|1,1,1,1,1,1,2,1,1,1,1,1,1,2,2,1,0,2,1,1
%|1,1,1,1,1,1,1,1,1,1,1,2,1,2,2,1,2,0,1,1
%|1,2,1,1,1,1,1,2,1,1,1,2,1,1,1,2,1,1,0,1
%|1,1,1,1,1,1,1,1,1,1,1,2,1,2,2,2,1,1,1,0|];

%Games to play:
games=[|2,1|3,2|4,1|4,2|5,1|5,2|5,3|6,2|6,4|6,5|7,1|7,2|7,3|7,4|7,6|8,1|8,2|8,4|8,5|8,7|9,2|9,3|9,6|9,7|10,1|10,3|10,4|10,7|10,8|10,9|11,1|11,3|11,5|11,6|11,7|11,8|11,9|12,1|12,2|12,3|12,4|12,5|12,6|12,7|12,8|12,9|12,10|12,11|13,1|13,3|13,4|13,5|13,6|13,8|13,9|13,10|13,11|14,1|14,2|14,3|14,4|14,5|14,6|14,7|14,8|14,9|14,10|14,11|14,12|15,1|15,2|15,3|15,4|15,5|15,6|15,7|15,8|15,9|15,10|15,12|15,13|15,14|16,2|16,3|16,4|16,5|16,6|16,8|16,9|16,10|16,11|16,12|16,13|16,14|16,15|17,1|17,2|17,3|17,4|17,5|17,6|17,8|17,9|17,10|17,11|17,12|17,13|17,16|18,1|18,2|18,3|18,4|18,5|18,6|18,7|18,8|18,9|18,10|18,11|18,13|18,16|19,1|19,3|19,4|19,5|19,6|19,7|19,9|19,10|19,11|19,13|19,14|19,15|19,17|19,18|20,1|20,2|20,3|20,4|20,5|20,6|20,7|20,8|20,9|20,10|20,11|20,13|20,17|20,18|20,19|];

%Played Games:
%PlayedGames=[|2,1|3,1|3,1|3,2|4,1|4,2|4,3|4,3|5,1|5,2|5,3|5,4|5,4|6,1|6,1|6,2|6,3|6,3|6,4|6,5|7,1|7,2|7,3|7,4|7,5|7,5|7,6|8,1|8,2|8,3|8,3|8,4|8,5|8,6|8,6|8,7|9,1|9,1|9,2|9,3|9,4|9,4|9,5|9,5|9,6|9,7|9,8|9,8|10,1|10,2|10,2|10,3|10,4|10,5|10,5|10,6|10,6|10,7|10,8|10,9|11,1|11,2|11,2|11,3|11,4|11,4|11,5|11,6|11,7|11,8|11,9|11,10|11,10|12,1|12,2|12,3|12,4|12,5|12,6|12,7|12,8|12,9|12,10|12,11|13,1|13,2|13,2|13,3|13,4|13,5|13,6|13,7|13,7|13,8|13,9|13,10|13,11|13,12|13,12|14,1|14,2|14,3|14,4|14,5|14,6|14,7|14,8|14,9|14,10|14,11|14,12|14,13|14,13|15,1|15,2|15,3|15,4|15,5|15,6|15,7|15,8|15,9|15,10|15,11|15,11|15,12|15,13|15,14|16,1|16,1|16,2|16,3|16,4|16,5|16,6|16,7|16,7|16,8|16,9|16,10|16,11|16,12|16,13|16,14|16,15|17,1|17,2|17,3|17,4|17,5|17,6|17,7|17,7|17,8|17,9|17,10|17,11|17,12|17,13|17,14|17,14|17,15|17,15|17,16|18,1|18,2|18,3|18,4|18,5|18,6|18,7|18,8|18,9|18,10|18,11|18,12|18,12|18,13|18,14|18,14|18,15|18,15|18,16|18,17|18,17|19,1|19,2|19,2|19,3|19,4|19,5|19,6|19,7|19,8|19,8|19,9|19,10|19,11|19,12|19,12|19,13|19,14|19,15|19,16|19,16|19,17|19,18|20,1|20,2|20,3|20,4|20,5|20,6|20,7|20,8|20,9|20,10|20,11|20,12|20,12|20,13|20,14|20,14|20,15|20,15|20,16|20,16|20,17|20,18|20,19|];

%Played Games - Win Results:
%% 0  0  0  0  0  0  0  1  0  0  0  0  0  0  0  0  0  0  1  0
%% 1  0  1  1  0  1  1  0  1  0  0  0  0  0  0  0  0  0  0  0
%% 0  0  0  0  0  0  0  0  0  0  0  0  0  0  0  0  0  0  0  0
%% 0  0  0  0  0  0  0  0  0  1  0  0  0  0  0  0  0  0  1  0
%% 1  0  1  0  0  1  0  0  0  0  0  0  0  0  0  0  0  0  1  0
%% 0  0  0  0  0  0  0  0  1  0  0  0  1  0  0  0  0  0  0  0
%% 1  0  1  1  0  1  0  1  1  1  1  0  0  0  0  0  0  0  1  0
%% 0  0  0  0  0  0  0  0  0  0  0  0  0  0  0  0  0  0  0  0
%% 0  0  0  0  0  0  0  0  0  0  0  0  0  0  0  0  0  0  1  0
%% 0  0  0  0  0  0  0  1  0  0  0  0  1  0  0  0  0  0  0  0
%% 1  0  1  0  0  1  0  0  1  0  0  0  1  0  0  0  0  0  0  0
%% 1  1  0  0  0  0  0  0  1  0  0  0  0  0  0  0  1  1  0  0
%% 0  0  0  0  0  0  0  0  0  0  0  0  0  0  0  0  0  0  0  0
%% 0  0  1  0  1  0  1  0  0  1  1  1  0  0  0  0  1  1  0  0
%% 0  1  0  1  1  1  1  0  0  1  0  1  1  1  0  1  2  2  0  0
%% 0  1  0  0  1  0  0  1  0  0  1  1  0  0  0  0  1  0  0  0
%% 0  1  0  1  0  0  0  1  0  0  0  0  1  0  0  0  0  0  0  0
%% 1  1  0  1  1  0  1  0  1  1  1  0  0  0  0  0  0  0  0  0
%% 0  0  0  0  0  0  0  0  0  0  0  0  0  0  0  0  0  0  0  0
%% 0  0  1  1  1  1  1  0  1  1  1  0  1  2  0  2  0  0  1  0
%Played Games - Tie Results:
%% 0  0  2  1  0  2  0  0  2  1  0  0  1  1  1  2  1  0  0  1
%% 0  0  0  0  1  0  0  1  0  2  2  0  2  1  0  0  0  0  2  1
%% 2  0  0  2  0  2  0  2  1  1  0  1  1  0  1  1  1  1  1  0
%% 1  0  2  0  2  1  0  1  2  0  2  1  1  1  0  1  0  0  0  0
%% 0  1  0  2  0  0  2  1  2  2  1  1  1  0  0  0  1  0  0  0
%% 2  0  2  1  0  0  0  2  0  2  0  1  0  1  0  1  1  1  1  0
%% 0  0  0  0  2  0  0  0  0  0  0  1  2  0  0  2  2  0  0  0
%% 0  1  2  1  1  2  0  0  2  0  1  1  1  1  1  0  0  1  2  1
%% 2  0  1  2  2  0  0  2  0  1  0  0  1  1  1  1  1  0  0  0
%% 1  2  1  0  2  2  0  0  1  0  2  1  0  0  0  1  1  0  1  0
%% 0  2  0  2  1  0  0  1  0  2  0  1  0  0  2  0  1  0  1  0
%% 0  0  1  1  1  1  1  1  0  1  1  0  2  0  0  0  0  1  2  2
%% 1  2  1  1  1  0  2  1  1  0  0  2  0  2  0  1  0  1  1  0
%% 1  1  0  1  0  1  0  1  1  0  0  0  2  0  0  1  1  1  1  0
%% 1  0  1  0  0  0  0  1  1  0  2  0  0  0  0  0  0  0  1  2
%% 2  0  1  1  0  1  2  0  1  1  0  0  1  1  0  0  0  1  2  0
%% 1  0  1  0  1  1  2  0  1  1  1  0  0  1  0  0  0  2  1  1
%% 0  0  1  0  0  1  0  1  0  0  0  1  1  1  0  1  2  0  1  1
%% 0  2  1  0  0  1  0  2  0  1  1  2  1  1  1  2  1  1  0  0
%% 1  1  0  0  0  0  0  1  0  0  0  2  0  0  2  0  1  1  0  0
%Played Games - Lose Results:
%% 0  1  0  0  1  0  1  0  0  0  1  1  0  0  0  0  0  1  0  0
%% 0  0  0  0  0  0  0  0  0  0  0  1  0  0  1  1  1  1  0  0
%% 0  1  0  0  1  0  1  0  0  0  1  0  0  1  0  0  0  0  0  1
%% 0  1  0  0  0  0  1  0  0  0  0  0  0  0  1  0  1  1  0  1
%% 0  0  0  0  0  0  0  0  0  0  0  0  0  1  1  1  0  1  0  1
%% 0  1  0  0  1  0  1  0  0  0  1  0  0  0  1  0  0  0  0  1
%% 0  1  0  0  0  0  0  0  0  0  0  0  0  1  1  0  0  1  0  1
%% 1  0  0  0  0  0  1  0  0  1  0  0  0  0  0  1  1  0  0  0
%% 0  1  0  0  0  1  1  0  0  0  1  1  0  0  0  0  0  1  0  1
%% 0  0  0  1  0  0  1  0  0  0  0  0  0  1  1  0  0  1  0  1
%% 0  0  0  0  0  0  1  0  0  0  0  0  0  1  0  1  0  1  0  1
%% 0  0  0  0  0  0  0  0  0  0  0  0  0  1  1  1  0  0  0  0
%% 0  0  0  0  0  1  0  0  0  1  1  0  0  0  1  0  1  0  0  1
%% 0  0  0  0  0  0  0  0  0  0  0  0  0  0  1  0  0  0  0  2
%% 0  0  0  0  0  0  0  0  0  0  0  0  0  0  0  0  0  0  0  0
%% 0  0  0  0  0  0  0  0  0  0  0  0  0  0  1  0  0  0  0  2
%% 0  0  0  0  0  0  0  0  0  0  0  1  0  1  2  1  0  0  0  0
%% 0  0  0  0  0  0  0  0  0  0  0  1  0  1  2  0  0  0  0  0
%% 1  0  0  1  1  0  1  0  1  0  0  0  0  0  0  0  0  0  0  1
%% 0  0  0  0  0  0  0  0  0  0  0  0  0  0  0  0  0  0  0  0

%%Initial points:
iPoints=[21, 30, 17, 21, 26, 21, 36, 18, 18, 21, 28, 30, 17, 36, 51, 32, 26, 35, 17, 51];

%%Initial positions:
%iPositions=[15, 8, 20, 14, 11, 13, 4, 17, 16, 12, 9, 7, 19, 3, 1, 6, 10, 5, 18, 2];

%%Position Constraints:
%numberPositionConstraints=1;

%%Total Fixtures:
%totalFixtures=38;

%%Fixtures to Play:
%fixturesToPlay=15;

%%Position Constraints Built With
%wantedPoints=[3, 1, 3, 1, 0, 0, 3, 1, 0, 1, 3, 1, 0, 0, 3, 3, 1, 1, 1, 0, 0, 0, 1, 3, 1, 1, 0, 0, 1, 1, 0, 0, 1, 3, 0, 1, 0, 3, 1, 1, 1, 1, 1, 3, 3, 1, 1, 0, 0, 1, 0, 3, 1, 3, 1, 3, 3, 3, 0, 3, 1, 0, 0, 0, 1, 0, 1, 3, 3, 0, 0, 0, 3, 1, 1, 3, 3, 0, 3, 0, 1, 3, 3, 0, 1, 1, 0, 3, 1, 1, 3, 1, 0, 0, 1, 0, 1, 3, 3, 3, 1, 0, 0, 0, 1, 3, 3, 0, 1, 1, 3, 0, 3, 0, 1, 0, 3, 1, 0, 0, 3, 1, 3, 3, 1, 1, 0, 0, 3, 0, 3, 0, 0, 0, 0, 1, 0, 1, 3, 3, 1, 0, 0, 1, 3, 1, 1, 0, 3, 0];

%POSITION CONSTRAINTS
%%[|teamID, operator, position|...]
%%operators index:
%%%1 for =  operator
%%%2 for >  operator
%%%3 for >= operator
%%%4 for <  operator
%%%5 for <= operator

positionConstraints=[|7,1,3|];

%SCORE VECTOR CONSTRAINTS
%%[|teamID, operator, wantedPoints|...]
%%operators index:
%%%1 for =  operator
%%%2 for >  operator
%%%3 for >= operator
%%%4 for <  operator
%%%5 for <= operator

%scoreVectorConstraints=[|7,1,62|];

%Instance Features:
%features=T,FP,TF,C,C/T,C/TF,FP/TF,FP/T,FP*C/T,FP*T/C,(C/T)*(FP/TF),Distance,Distance/C,Distance/T,Distance/(C*T)
%values=20,15,38,1,0.05,0.02631578947368421,0.3947368421052632,0.75,0.75,300.0,0.01973684210526316,1,1.0,0.05,0.05



gamesOfEveryTeam=[15,15,15,15,15,15,15,15,15,15,15,15,15,15,15,15,15,15,15,15];
weights=[|93,6,0,1|10,4,0,86|80,5,0,15|20,16,0,64|52,47,0,1|65,28,0,7|92,8,0,0|64,30,0,6|3,79,0,18|55,14,0,31|31,56,0,13|51,11,0,38|75,4,0,21|5,55,0,40|14,12,0,74|99,0,0,1|91,3,0,6|56,34,0,10|43,11,0,46|6,27,0,67|29,32,0,39|61,15,0,24|29,68,0,3|12,66,0,22|82,12,0,6|47,44,0,9|7,54,0,39|55,42,0,3|65,35,0,0|64,25,0,11|59,26,0,15|48,0,0,52|18,45,0,37|56,21,0,23|92,2,0,6|95,3,0,2|63,25,0,12|56,37,0,7|26,43,0,31|53,16,0,31|35,37,0,28|51,27,0,22|64,35,0,1|24,54,0,22|100,0,0,0|46,33,0,21|42,32,0,26|98,1,0,1|84,8,0,8|52,41,0,7|45,27,0,28|64,8,0,28|87,10,0,3|62,34,0,4|93,6,0,1|44,17,0,39|80,6,0,14|67,12,0,21|65,24,0,11|18,3,0,79|27,61,0,12|65,14,0,21|88,10,0,2|30,42,0,28|38,53,0,9|81,3,0,16|6,33,0,61|58,37,0,5|96,4,0,0|38,51,0,11|12,26,0,62|20,76,0,4|3,92,0,5|28,67,0,5|56,37,0,7|7,28,0,65|60,26,0,14|62,11,0,27|4,47,0,49|46,17,0,37|37,48,0,15|36,46,0,18|13,37,0,50|42,5,0,53|96,1,0,3|20,6,0,74|9,80,0,11|20,10,0,70|80,7,0,13|9,60,0,31|42,37,0,21|83,14,0,3|13,5,0,82|88,2,0,10|2,72,0,26|9,34,0,57|23,1,0,76|41,4,0,55|5,38,0,57|44,34,0,22|74,18,0,8|72,4,0,24|17,15,0,68|75,25,0,0|18,40,0,42|28,40,0,32|75,9,0,16|92,1,0,7|10,51,0,39|25,24,0,51|13,50,0,37|51,5,0,44|14,21,0,65|49,42,0,9|5,71,0,24|17,0,0,83|38,18,0,44|81,18,0,1|1,99,0,0|46,16,0,38|23,35,0,42|26,18,0,56|52,48,0,0|33,37,0,30|64,14,0,22|41,31,0,28|94,0,0,6|13,26,0,61|17,40,0,43|78,0,0,22|39,42,0,19|81,19,0,0|59,7,0,34|69,13,0,18|28,61,0,11|67,17,0,16|30,56,0,14|77,20,0,3|48,48,0,4|11,9,0,80|83,3,0,14|67,13,0,20|97,0,0,3|54,30,0,16|87,2,0,11|92,0,0,8|38,50,0,12|93,7,0,0|93,5,0,2|5,48,0,47|];